1 15
2 15
3 2
4 18
5 9
6 8
7 15
8 5
9 16
10 13
11 7
12 17
13 7
14 19
15 9
16 21
17 3
18 8
19 19
20 20
21 14
22 8
23 4
24 18
25 6
26 12
27 19
28 4
29 1
30 1
31 1
32 14
33 10
34 11
35 11
36 14
37 12
38 12
39 13
40 1
41 12
42 14
43 1
44 16
45 14
46 5
47 10
48 16
49 16
50 4
51 13
52 11
53 11
54 8
55 20
56 14
57 18
58 20
59 3
60 6
61 9
62 20
63 4
64 7
65 18
66 2
67 5
68 8
69 14
70 15
71 3
72 3
73 9
74 4
75 4
76 15
77 14
78 20
79 9
80 10
81 10
82 8
83 12
84 1
85 16
86 5
87 16
88 5
89 15
90 5
91 19
92 13
93 9
94 4
95 17
96 18
97 11
98 10
99 11
100 21
101 20
102 7
103 6
104 5
105 4
106 15
107 12
108 21
109 21
110 21
111 12
112 8
113 4
114 21
115 18
116 21
117 3
118 21
119 6
120 12
121 6
122 13
123 8
124 15
125 15
126 12
127 5
128 9
129 9
130 14
131 14
132 15
133 14
134 20
135 19
136 3
137 19
138 18
139 8
140 18
141 18
142 10
143 8
144 16
145 15
146 19
147 13
148 3
149 3
150 3
151 17
152 2
153 17
154 17
155 2
156 2
157 14
158 9
159 19
160 5
161 6
162 6
163 2
164 8
165 20
166 11
167 16
168 5
169 3
170 9
171 16
172 20
173 8
174 6
175 1
176 4
177 8
178 17
179 12
180 2
181 17
